cases/pglib-opf/pglib_opf_case30_as.m
ipopt
ACT
[info | PowerModels]: extending matpower format with data: areas 1x3
[warn | PowerModels]: no active generators found at bus 23, updating to bus type from 2 to 1
[warn | PowerModels]: no active generators found at bus 22, updating to bus type from 2 to 1
[warn | PowerModels]: active generators found at bus 11, updating to bus type from 1 to 2
[warn | PowerModels]: active generators found at bus 5, updating to bus type from 1 to 2
[warn | PowerModels]: no active generators found at bus 27, updating to bus type from 2 to 1
[warn | PowerModels]: active generators found at bus 8, updating to bus type from 1 to 2

******************************************************************************
This program contains Ipopt, a library for large-scale nonlinear optimization.
 Ipopt is released as open source code under the Eclipse Public License (EPL).
         For more information visit http://projects.coin-or.org/Ipopt
******************************************************************************

This is Ipopt version 3.13.2, running with linear solver mumps.
NOTE: Other linear solvers might be more efficient (see Ipopt documentation).

Number of nonzeros in equality constraint Jacobian...:     1121
Number of nonzeros in inequality constraint Jacobian.:      328
Number of nonzeros in Lagrangian Hessian.............:      539

Total number of variables............................:      318
                     variables with only lower bounds:        0
                variables with lower and upper bounds:      288
                     variables with only upper bounds:        0
Total number of equality constraints.................:      307
Total number of inequality constraints...............:      164
        inequality constraints with only lower bounds:       41
   inequality constraints with lower and upper bounds:        0
        inequality constraints with only upper bounds:      123

iter    objective    inf_pr   inf_du lg(mu)  ||d||  lg(rg) alpha_du alpha_pr  ls
   0  2.9330612e+02 7.89e-01 1.11e+02  -1.0 0.00e+00    -  0.00e+00 0.00e+00   0
   1  7.5996750e+02 6.65e-02 1.21e+02  -1.0 7.90e-01    -  1.66e-02 9.16e-01h  1
   2  7.9658418e+02 7.72e-03 3.30e+01  -1.0 1.01e+00    -  8.12e-01 8.84e-01h  1
   3  8.0472334e+02 1.37e-04 9.94e+00  -1.0 3.41e-01    -  1.00e+00 1.00e+00h  1
   4  8.0430669e+02 2.52e-05 1.06e+00  -1.0 5.29e-02    -  1.00e+00 1.00e+00f  1
   5  8.0432948e+02 4.68e-06 1.27e-01  -1.0 4.13e-02    -  1.00e+00 1.00e+00h  1
   6  8.0362228e+02 1.43e-05 1.12e+00  -2.5 8.50e-02    -  8.48e-01 1.00e+00f  1
   7  8.0330346e+02 1.40e-05 5.73e-01  -2.5 5.63e-02    -  9.19e-01 8.50e-01f  1
   8  8.0314972e+02 3.58e-05 1.13e+00  -2.5 5.85e-02    -  1.00e+00 1.00e+00f  1
   9  8.0318049e+02 4.36e-06 2.59e-03  -2.5 1.06e-02    -  1.00e+00 1.00e+00h  1
iter    objective    inf_pr   inf_du lg(mu)  ||d||  lg(rg) alpha_du alpha_pr  ls
  10  8.0312723e+02 8.58e-06 2.35e-01  -3.8 3.00e-02    -  9.13e-01 8.91e-01h  1
  11  8.0312719e+02 2.48e-06 1.86e-02  -3.8 1.28e-02    -  1.00e+00 1.00e+00h  1
  12  8.0312890e+02 1.32e-08 1.49e-04  -3.8 1.23e-03    -  1.00e+00 1.00e+00h  1
  13  8.0312724e+02 1.30e-07 1.75e-03  -5.7 3.31e-03    -  1.00e+00 9.85e-01h  1
  14  8.0312726e+02 9.78e-08 1.86e-03  -5.7 1.78e-04    -  1.00e+00 2.50e-01h  3
  15  8.0312733e+02 1.59e-10 1.51e-06  -5.7 1.34e-04    -  1.00e+00 1.00e+00h  1
  16  8.0312731e+02 2.32e-11 3.03e-07  -8.6 4.41e-05    -  1.00e+00 1.00e+00h  1
  17  8.0312731e+02 4.36e-15 8.72e-13  -8.6 2.28e-08    -  1.00e+00 1.00e+00h  1

Number of Iterations....: 17

                                   (scaled)                 (unscaled)
Objective...............:   2.4711609560841927e+02    8.0312731072736256e+02
Dual infeasibility......:   8.7241302807330439e-13    2.8353423412382393e-12
Constraint violation....:   4.3576253716537394e-15    4.3576253716537394e-15
Complementarity.........:   2.5059044967768820e-09    8.1441896145248656e-09
Overall NLP error.......:   2.5059044967768820e-09    8.1441896145248656e-09


Number of objective function evaluations             = 20
Number of objective gradient evaluations             = 18
Number of equality constraint evaluations            = 20
Number of inequality constraint evaluations          = 20
Number of equality constraint Jacobian evaluations   = 18
Number of inequality constraint Jacobian evaluations = 18
Number of Lagrangian Hessian evaluations             = 17
Total CPU secs in IPOPT (w/o function evaluations)   =      1.286
Total CPU secs in NLP function evaluations           =      2.245

EXIT: Optimal Solution Found.
Time to Solution........:4.286624908447266
